p wcnf 468 1592
w -2 0.367879 0
w 2 2.718282 0
w -3 0.367879 0
w 3 2.718282 0
w -4 0.367879 0
w 4 2.718282 0
w -5 0.367879 0
w 5 2.718282 0
w -6 0.367879 0
w 6 2.718282 0
w -7 0.367879 0
w 7 2.718282 0
w -8 0.367879 0
w 8 2.718282 0
w -9 0.367879 0
w 9 2.718282 0
w -10 0.367879 0
w 10 2.718282 0
w -12 0.367879 0
w 12 2.718282 0
w -13 0.367879 0
w 13 2.718282 0
w -14 0.367879 0
w 14 2.718282 0
w -15 0.367879 0
w 15 2.718282 0
w -16 0.367879 0
w 16 2.718282 0
w -17 0.367879 0
w 17 2.718282 0
w -18 0.367879 0
w 18 2.718282 0
w -19 0.367879 0
w 19 2.718282 0
w -20 0.367879 0
w 20 2.718282 0
w -21 0.367879 0
w 21 2.718282 0
w -22 0.367879 0
w 22 2.718282 0
w -24 0.367879 0
w 24 2.718282 0
w -25 0.367879 0
w 25 2.718282 0
w -26 0.367879 0
w 26 2.718282 0
w -27 0.367879 0
w 27 2.718282 0
w -28 0.367879 0
w 28 2.718282 0
w -29 0.367879 0
w 29 2.718282 0
w -30 0.367879 0
w 30 2.718282 0
w -31 0.367879 0
w 31 2.718282 0
w -32 0.367879 0
w 32 2.718282 0
w -33 0.367879 0
w 33 2.718282 0
w -34 0.367879 0
w 34 2.718282 0
w -35 0.367879 0
w 35 2.718282 0
w -37 0.367879 0
w 37 2.718282 0
w -38 0.367879 0
w 38 2.718282 0
w -39 0.367879 0
w 39 2.718282 0
w -40 0.367879 0
w 40 2.718282 0
w -41 0.367879 0
w 41 2.718282 0
w -42 0.367879 0
w 42 2.718282 0
w -43 0.367879 0
w 43 2.718282 0
w -44 0.367879 0
w 44 2.718282 0
w -45 0.367879 0
w 45 2.718282 0
w -46 0.367879 0
w 46 2.718282 0
w -47 0.367879 0
w 47 2.718282 0
w -48 0.367879 0
w 48 2.718282 0
w -49 0.367879 0
w 49 2.718282 0
w -51 0.367879 0
w 51 2.718282 0
w -52 0.367879 0
w 52 2.718282 0
w -53 0.367879 0
w 53 2.718282 0
w -54 0.367879 0
w 54 2.718282 0
w -55 0.367879 0
w 55 2.718282 0
w -56 0.367879 0
w 56 2.718282 0
w -57 0.367879 0
w 57 2.718282 0
w -58 0.367879 0
w 58 2.718282 0
w -59 0.367879 0
w 59 2.718282 0
w -60 0.367879 0
w 60 2.718282 0
w -61 0.367879 0
w 61 2.718282 0
w -63 0.367879 0
w 63 2.718282 0
w -64 0.367879 0
w 64 2.718282 0
w -65 0.367879 0
w 65 2.718282 0
w -66 0.367879 0
w 66 2.718282 0
w -67 0.367879 0
w 67 2.718282 0
w -68 0.367879 0
w 68 2.718282 0
w -69 0.367879 0
w 69 2.718282 0
w -70 0.367879 0
w 70 2.718282 0
w -71 0.367879 0
w 71 2.718282 0
w -72 0.367879 0
w 72 2.718282 0
w -73 0.367879 0
w 73 2.718282 0
w -75 0.367879 0
w 75 2.718282 0
w -76 0.367879 0
w 76 2.718282 0
w -77 0.367879 0
w 77 2.718282 0
w -78 0.367879 0
w 78 2.718282 0
w -79 0.367879 0
w 79 2.718282 0
w -80 0.367879 0
w 80 2.718282 0
w -81 0.367879 0
w 81 2.718282 0
w -82 0.367879 0
w 82 2.718282 0
w -84 0.367879 0
w 84 2.718282 0
w -85 0.367879 0
w 85 2.718282 0
w -86 0.367879 0
w 86 2.718282 0
w -87 0.367879 0
w 87 2.718282 0
w -88 0.367879 0
w 88 2.718282 0
w -89 0.367879 0
w 89 2.718282 0
w -90 0.367879 0
w 90 2.718282 0
w -91 0.367879 0
w 91 2.718282 0
w -92 0.367879 0
w 92 2.718282 0
w -93 0.367879 0
w 93 2.718282 0
w -94 0.367879 0
w 94 2.718282 0
w -96 0.367879 0
w 96 2.718282 0
w -97 0.367879 0
w 97 2.718282 0
w -98 0.367879 0
w 98 2.718282 0
w -99 0.367879 0
w 99 2.718282 0
w -100 0.367879 0
w 100 2.718282 0
w -101 0.367879 0
w 101 2.718282 0
w -102 0.367879 0
w 102 2.718282 0
w -103 0.367879 0
w 103 2.718282 0
w -104 0.367879 0
w 104 2.718282 0
w -105 0.367879 0
w 105 2.718282 0
w -106 0.367879 0
w 106 2.718282 0
w -107 0.367879 0
w 107 2.718282 0
w -108 0.367879 0
w 108 2.718282 0
w -109 0.367879 0
w 109 2.718282 0
w -110 0.367879 0
w 110 2.718282 0
w -111 0.367879 0
w 111 2.718282 0
w -112 0.367879 0
w 112 2.718282 0
w -114 0.367879 0
w 114 2.718282 0
w -115 0.367879 0
w 115 2.718282 0
w -116 0.367879 0
w 116 2.718282 0
w -117 0.367879 0
w 117 2.718282 0
w -118 0.367879 0
w 118 2.718282 0
w -119 0.367879 0
w 119 2.718282 0
w -120 0.367879 0
w 120 2.718282 0
w -121 0.367879 0
w 121 2.718282 0
w -122 0.367879 0
w 122 2.718282 0
w -124 0.367879 0
w 124 2.718282 0
w -125 0.367879 0
w 125 2.718282 0
w -126 0.367879 0
w 126 2.718282 0
w -127 0.367879 0
w 127 2.718282 0
w -128 0.367879 0
w 128 2.718282 0
w -129 0.367879 0
w 129 2.718282 0
w -130 0.367879 0
w 130 2.718282 0
w -131 0.367879 0
w 131 2.718282 0
w -133 0.367879 0
w 133 2.718282 0
w -134 0.367879 0
w 134 2.718282 0
w -135 0.367879 0
w 135 2.718282 0
w -136 0.367879 0
w 136 2.718282 0
w -137 0.367879 0
w 137 2.718282 0
w -138 0.367879 0
w 138 2.718282 0
w -139 0.367879 0
w 139 2.718282 0
w -140 0.367879 0
w 140 2.718282 0
w -141 0.367879 0
w 141 2.718282 0
w -142 0.367879 0
w 142 2.718282 0
w -144 0.367879 0
w 144 2.718282 0
w -145 0.367879 0
w 145 2.718282 0
w -146 0.367879 0
w 146 2.718282 0
w -147 0.367879 0
w 147 2.718282 0
w -148 0.367879 0
w 148 2.718282 0
w -149 0.367879 0
w 149 2.718282 0
w -150 0.367879 0
w 150 2.718282 0
w -151 0.367879 0
w 151 2.718282 0
w -152 0.367879 0
w 152 2.718282 0
w -154 0.367879 0
w 154 2.718282 0
w -155 0.367879 0
w 155 2.718282 0
w -156 0.367879 0
w 156 2.718282 0
w -157 0.367879 0
w 157 2.718282 0
w -158 0.367879 0
w 158 2.718282 0
w -159 0.367879 0
w 159 2.718282 0
w -161 0.367879 0
w 161 2.718282 0
w -162 0.367879 0
w 162 2.718282 0
w -163 0.367879 0
w 163 2.718282 0
w -164 0.367879 0
w 164 2.718282 0
w -165 0.367879 0
w 165 2.718282 0
w -166 0.367879 0
w 166 2.718282 0
w -167 0.367879 0
w 167 2.718282 0
w -168 0.367879 0
w 168 2.718282 0
w -169 0.367879 0
w 169 2.718282 0
w -170 0.367879 0
w 170 2.718282 0
w -171 0.367879 0
w 171 2.718282 0
w -172 0.367879 0
w 172 2.718282 0
w -173 0.367879 0
w 173 2.718282 0
w -174 0.367879 0
w 174 2.718282 0
w -176 0.367879 0
w 176 2.718282 0
w -177 0.367879 0
w 177 2.718282 0
w -178 0.367879 0
w 178 2.718282 0
w -179 0.367879 0
w 179 2.718282 0
w -180 0.367879 0
w 180 2.718282 0
w -181 0.367879 0
w 181 2.718282 0
w -182 0.367879 0
w 182 2.718282 0
w -183 0.367879 0
w 183 2.718282 0
w -185 0.367879 0
w 185 2.718282 0
w -186 0.367879 0
w 186 2.718282 0
w -187 0.367879 0
w 187 2.718282 0
w -188 0.367879 0
w 188 2.718282 0
w -189 0.367879 0
w 189 2.718282 0
w -190 0.367879 0
w 190 2.718282 0
w -191 0.367879 0
w 191 2.718282 0
w -192 0.367879 0
w 192 2.718282 0
w -193 0.367879 0
w 193 2.718282 0
w -195 0.367879 0
w 195 2.718282 0
w -196 0.367879 0
w 196 2.718282 0
w -197 0.367879 0
w 197 2.718282 0
w -198 0.367879 0
w 198 2.718282 0
w -199 0.367879 0
w 199 2.718282 0
w -200 0.367879 0
w 200 2.718282 0
w -201 0.367879 0
w 201 2.718282 0
w -202 0.367879 0
w 202 2.718282 0
w -203 0.367879 0
w 203 2.718282 0
w -204 0.367879 0
w 204 2.718282 0
w -205 0.367879 0
w 205 2.718282 0
w -206 0.367879 0
w 206 2.718282 0
w -207 0.367879 0
w 207 2.718282 0
w -209 0.367879 0
w 209 2.718282 0
w -210 0.367879 0
w 210 2.718282 0
w -211 0.367879 0
w 211 2.718282 0
w -212 0.367879 0
w 212 2.718282 0
w -213 0.367879 0
w 213 2.718282 0
w -214 0.367879 0
w 214 2.718282 0
w -216 0.367879 0
w 216 2.718282 0
w -217 0.367879 0
w 217 2.718282 0
w -218 0.367879 0
w 218 2.718282 0
w -219 0.367879 0
w 219 2.718282 0
w -220 0.367879 0
w 220 2.718282 0
w -221 0.367879 0
w 221 2.718282 0
w -222 0.367879 0
w 222 2.718282 0
w -223 0.367879 0
w 223 2.718282 0
w -225 0.367879 0
w 225 2.718282 0
w -226 0.367879 0
w 226 2.718282 0
w -227 0.367879 0
w 227 2.718282 0
w -228 0.367879 0
w 228 2.718282 0
w -229 0.367879 0
w 229 2.718282 0
w -230 0.367879 0
w 230 2.718282 0
w -231 0.367879 0
w 231 2.718282 0
w -232 0.367879 0
w 232 2.718282 0
w -233 0.367879 0
w 233 2.718282 0
w -235 0.367879 0
w 235 2.718282 0
w -236 0.367879 0
w 236 2.718282 0
w -237 0.367879 0
w 237 2.718282 0
w -238 0.367879 0
w 238 2.718282 0
w -240 0.367879 0
w 240 2.718282 0
w -241 0.367879 0
w 241 2.718282 0
w -242 0.367879 0
w 242 2.718282 0
w -243 0.367879 0
w 243 2.718282 0
w -244 0.367879 0
w 244 2.718282 0
w -245 0.367879 0
w 245 2.718282 0
w -246 0.367879 0
w 246 2.718282 0
w -248 0.367879 0
w 248 2.718282 0
w -249 0.367879 0
w 249 2.718282 0
w -250 0.367879 0
w 250 2.718282 0
w -252 0.367879 0
w 252 2.718282 0
w -253 0.367879 0
w 253 2.718282 0
w -254 0.367879 0
w 254 2.718282 0
w -255 0.367879 0
w 255 2.718282 0
w -256 0.367879 0
w 256 2.718282 0
w -257 0.367879 0
w 257 2.718282 0
w -259 0.367879 0
w 259 2.718282 0
w -260 0.367879 0
w 260 2.718282 0
w -261 0.367879 0
w 261 2.718282 0
w -262 0.367879 0
w 262 2.718282 0
w -263 0.367879 0
w 263 2.718282 0
w -264 0.367879 0
w 264 2.718282 0
w -266 0.367879 0
w 266 2.718282 0
w -267 0.367879 0
w 267 2.718282 0
w -268 0.367879 0
w 268 2.718282 0
w -269 0.367879 0
w 269 2.718282 0
w -270 0.367879 0
w 270 2.718282 0
w -271 0.367879 0
w 271 2.718282 0
w -272 0.367879 0
w 272 2.718282 0
w -273 0.367879 0
w 273 2.718282 0
w -274 0.367879 0
w 274 2.718282 0
w -275 0.367879 0
w 275 2.718282 0
w -276 0.367879 0
w 276 2.718282 0
w -278 0.367879 0
w 278 2.718282 0
w -279 0.367879 0
w 279 2.718282 0
w -280 0.367879 0
w 280 2.718282 0
w -282 0.367879 0
w 282 2.718282 0
w -283 0.367879 0
w 283 2.718282 0
w -284 0.367879 0
w 284 2.718282 0
w -285 0.367879 0
w 285 2.718282 0
w -286 0.367879 0
w 286 2.718282 0
w -287 0.367879 0
w 287 2.718282 0
w -289 0.367879 0
w 289 2.718282 0
w -290 0.367879 0
w 290 2.718282 0
w -291 0.367879 0
w 291 2.718282 0
w -293 0.367879 0
w 293 2.718282 0
w -294 0.367879 0
w 294 2.718282 0
w -295 0.367879 0
w 295 2.718282 0
w -296 0.367879 0
w 296 2.718282 0
w -297 0.367879 0
w 297 2.718282 0
w -299 0.367879 0
w 299 2.718282 0
w -300 0.367879 0
w 300 2.718282 0
w -301 0.367879 0
w 301 2.718282 0
w -302 0.367879 0
w 302 2.718282 0
w -303 0.367879 0
w 303 2.718282 0
w -304 0.367879 0
w 304 2.718282 0
w -305 0.367879 0
w 305 2.718282 0
w -306 0.367879 0
w 306 2.718282 0
w -308 0.367879 0
w 308 2.718282 0
w -309 0.367879 0
w 309 2.718282 0
w -310 0.367879 0
w 310 2.718282 0
w -311 0.367879 0
w 311 2.718282 0
w -312 0.367879 0
w 312 2.718282 0
w -313 0.367879 0
w 313 2.718282 0
w -314 0.367879 0
w 314 2.718282 0
w -315 0.367879 0
w 315 2.718282 0
w -316 0.367879 0
w 316 2.718282 0
w -318 0.367879 0
w 318 2.718282 0
w -319 0.367879 0
w 319 2.718282 0
w -320 0.367879 0
w 320 2.718282 0
w -321 0.367879 0
w 321 2.718282 0
w -322 0.367879 0
w 322 2.718282 0
w -324 0.367879 0
w 324 2.718282 0
w -325 0.367879 0
w 325 2.718282 0
w -326 0.367879 0
w 326 2.718282 0
w -327 0.367879 0
w 327 2.718282 0
w -328 0.367879 0
w 328 2.718282 0
w -329 0.367879 0
w 329 2.718282 0
w -330 0.367879 0
w 330 2.718282 0
w -332 0.367879 0
w 332 2.718282 0
w -333 0.367879 0
w 333 2.718282 0
w -334 0.367879 0
w 334 2.718282 0
w -335 0.367879 0
w 335 2.718282 0
w -337 0.367879 0
w 337 2.718282 0
w -338 0.367879 0
w 338 2.718282 0
w -339 0.367879 0
w 339 2.718282 0
w -340 0.367879 0
w 340 2.718282 0
w -341 0.367879 0
w 341 2.718282 0
w -342 0.367879 0
w 342 2.718282 0
w -343 0.367879 0
w 343 2.718282 0
w -345 0.367879 0
w 345 2.718282 0
w -346 0.367879 0
w 346 2.718282 0
w -347 0.367879 0
w 347 2.718282 0
w -348 0.367879 0
w 348 2.718282 0
w -349 0.367879 0
w 349 2.718282 0
w -350 0.367879 0
w 350 2.718282 0
w -351 0.367879 0
w 351 2.718282 0
w -352 0.367879 0
w 352 2.718282 0
w -354 0.367879 0
w 354 2.718282 0
w -355 0.367879 0
w 355 2.718282 0
w -356 0.367879 0
w 356 2.718282 0
w -357 0.367879 0
w 357 2.718282 0
w -358 0.367879 0
w 358 2.718282 0
w -360 0.367879 0
w 360 2.718282 0
w -361 0.367879 0
w 361 2.718282 0
w -362 0.367879 0
w 362 2.718282 0
w -363 0.367879 0
w 363 2.718282 0
w -364 0.367879 0
w 364 2.718282 0
w -366 0.367879 0
w 366 2.718282 0
w -367 0.367879 0
w 367 2.718282 0
w -368 0.367879 0
w 368 2.718282 0
w -370 0.367879 0
w 370 2.718282 0
w -371 0.367879 0
w 371 2.718282 0
w -372 0.367879 0
w 372 2.718282 0
w -373 0.367879 0
w 373 2.718282 0
w -375 0.367879 0
w 375 2.718282 0
w -376 0.367879 0
w 376 2.718282 0
w -377 0.367879 0
w 377 2.718282 0
w -378 0.367879 0
w 378 2.718282 0
w -379 0.367879 0
w 379 2.718282 0
w -381 0.367879 0
w 381 2.718282 0
w -382 0.367879 0
w 382 2.718282 0
w -383 0.367879 0
w 383 2.718282 0
w -385 0.367879 0
w 385 2.718282 0
w -386 0.367879 0
w 386 2.718282 0
w -387 0.367879 0
w 387 2.718282 0
w -388 0.367879 0
w 388 2.718282 0
w -389 0.367879 0
w 389 2.718282 0
w -391 0.367879 0
w 391 2.718282 0
w -392 0.367879 0
w 392 2.718282 0
w -393 0.367879 0
w 393 2.718282 0
w -394 0.367879 0
w 394 2.718282 0
w -395 0.367879 0
w 395 2.718282 0
w -397 0.367879 0
w 397 2.718282 0
w -398 0.367879 0
w 398 2.718282 0
w -399 0.367879 0
w 399 2.718282 0
w -400 0.367879 0
w 400 2.718282 0
w -401 0.367879 0
w 401 2.718282 0
w -403 0.367879 0
w 403 2.718282 0
w -404 0.367879 0
w 404 2.718282 0
w -405 0.367879 0
w 405 2.718282 0
w -406 0.367879 0
w 406 2.718282 0
w -407 0.367879 0
w 407 2.718282 0
w -408 0.367879 0
w 408 2.718282 0
w -410 0.367879 0
w 410 2.718282 0
w -411 0.367879 0
w 411 2.718282 0
w -412 0.367879 0
w 412 2.718282 0
w -414 0.367879 0
w 414 2.718282 0
w -415 0.367879 0
w 415 2.718282 0
w -416 0.367879 0
w 416 2.718282 0
w -417 0.367879 0
w 417 2.718282 0
w -418 0.367879 0
w 418 2.718282 0
w -420 0.367879 0
w 420 2.718282 0
w -422 0.367879 0
w 422 2.718282 0
w -423 0.367879 0
w 423 2.718282 0
w -424 0.367879 0
w 424 2.718282 0
w -426 0.367879 0
w 426 2.718282 0
w -427 0.367879 0
w 427 2.718282 0
w -428 0.367879 0
w 428 2.718282 0
w -429 0.367879 0
w 429 2.718282 0
w -430 0.367879 0
w 430 2.718282 0
w -432 0.367879 0
w 432 2.718282 0
w -435 0.367879 0
w 435 2.718282 0
w -437 0.367879 0
w 437 2.718282 0
w -438 0.367879 0
w 438 2.718282 0
w -439 0.367879 0
w 439 2.718282 0
w -441 0.367879 0
w 441 2.718282 0
w -442 0.367879 0
w 442 2.718282 0
w -444 0.367879 0
w 444 2.718282 0
w -445 0.367879 0
w 445 2.718282 0
w -446 0.367879 0
w 446 2.718282 0
w -448 0.367879 0
w 448 2.718282 0
w -449 0.367879 0
w 449 2.718282 0
w -451 0.367879 0
w 451 2.718282 0
w -452 0.367879 0
w 452 2.718282 0
w -454 0.367879 0
w 454 2.718282 0
w -455 0.367879 0
w 455 2.718282 0
w -457 0.367879 0
w 457 2.718282 0
w -460 0.367879 0
w 460 2.718282 0
w -461 0.367879 0
w 461 2.718282 0
w -463 0.367879 0
w 463 2.718282 0
w -467 0.367879 0
w 467 2.718282 0
2 1 11 0
2 -1 -11 0
-2 1 -11 0
-2 -1 11 0
3 1 83 0
3 -1 -83 0
-3 1 -83 0
-3 -1 83 0
4 1 123 0
4 -1 -123 0
-4 1 -123 0
-4 -1 123 0
5 1 215 0
5 -1 -215 0
-5 1 -215 0
-5 -1 215 0
6 1 224 0
6 -1 -224 0
-6 1 -224 0
-6 -1 224 0
7 1 247 0
7 -1 -247 0
-7 1 -247 0
-7 -1 247 0
8 1 307 0
8 -1 -307 0
-8 1 -307 0
-8 -1 307 0
9 1 458 0
9 -1 -458 0
-9 1 -458 0
-9 -1 458 0
10 1 468 0
10 -1 -468 0
-10 1 -468 0
-10 -1 468 0
12 11 62 0
12 -11 -62 0
-12 11 -62 0
-12 -11 62 0
13 11 175 0
13 -11 -175 0
-13 11 -175 0
-13 -11 175 0
14 11 224 0
14 -11 -224 0
-14 11 -224 0
-14 -11 224 0
15 11 353 0
15 -11 -353 0
-15 11 -353 0
-15 -11 353 0
16 11 359 0
16 -11 -359 0
-16 11 -359 0
-16 -11 359 0
17 11 380 0
17 -11 -380 0
-17 11 -380 0
-17 -11 380 0
18 11 390 0
18 -11 -390 0
-18 11 -390 0
-18 -11 390 0
19 11 425 0
19 -11 -425 0
-19 11 -425 0
-19 -11 425 0
20 11 434 0
20 -11 -434 0
-20 11 -434 0
-20 -11 434 0
21 11 443 0
21 -11 -443 0
-21 11 -443 0
-21 -11 443 0
22 11 465 0
22 -11 -465 0
-22 11 -465 0
-22 -11 465 0
24 23 36 0
24 -23 -36 0
-24 23 -36 0
-24 -23 36 0
25 23 50 0
25 -23 -50 0
-25 23 -50 0
-25 -23 50 0
26 23 123 0
26 -23 -123 0
-26 23 -123 0
-26 -23 123 0
27 23 132 0
27 -23 -132 0
-27 23 -132 0
-27 -23 132 0
28 23 215 0
28 -23 -215 0
-28 23 -215 0
-28 -23 215 0
29 23 247 0
29 -23 -247 0
-29 23 -247 0
-29 -23 247 0
30 23 251 0
30 -23 -251 0
-30 23 -251 0
-30 -23 251 0
31 23 281 0
31 -23 -281 0
-31 23 -281 0
-31 -23 281 0
32 23 396 0
32 -23 -396 0
-32 23 -396 0
-32 -23 396 0
33 23 409 0
33 -23 -409 0
-33 23 -409 0
-33 -23 409 0
34 23 431 0
34 -23 -431 0
-34 23 -431 0
-34 -23 431 0
35 23 443 0
35 -23 -443 0
-35 23 -443 0
-35 -23 443 0
37 36 95 0
37 -36 -95 0
-37 36 -95 0
-37 -36 95 0
38 36 113 0
38 -36 -113 0
-38 36 -113 0
-38 -36 113 0
39 36 184 0
39 -36 -184 0
-39 36 -184 0
-39 -36 184 0
40 36 215 0
40 -36 -215 0
-40 36 -215 0
-40 -36 215 0
41 36 307 0
41 -36 -307 0
-41 36 -307 0
-41 -36 307 0
42 36 317 0
42 -36 -317 0
-42 36 -317 0
-42 -36 317 0
43 36 353 0
43 -36 -353 0
-43 36 -353 0
-43 -36 353 0
44 36 384 0
44 -36 -384 0
-44 36 -384 0
-44 -36 384 0
45 36 390 0
45 -36 -390 0
-45 36 -390 0
-45 -36 390 0
46 36 436 0
46 -36 -436 0
-46 36 -436 0
-46 -36 436 0
47 36 456 0
47 -36 -456 0
-47 36 -456 0
-47 -36 456 0
48 36 458 0
48 -36 -458 0
-48 36 -458 0
-48 -36 458 0
49 36 465 0
49 -36 -465 0
-49 36 -465 0
-49 -36 465 0
51 50 62 0
51 -50 -62 0
-51 50 -62 0
-51 -50 62 0
52 50 113 0
52 -50 -113 0
-52 50 -113 0
-52 -50 113 0
53 50 224 0
53 -50 -224 0
-53 50 -224 0
-53 -50 224 0
54 50 239 0
54 -50 -239 0
-54 50 -239 0
-54 -50 239 0
55 50 307 0
55 -50 -307 0
-55 50 -307 0
-55 -50 307 0
56 50 317 0
56 -50 -317 0
-56 50 -317 0
-56 -50 317 0
57 50 369 0
57 -50 -369 0
-57 50 -369 0
-57 -50 369 0
58 50 380 0
58 -50 -380 0
-58 50 -380 0
-58 -50 380 0
59 50 443 0
59 -50 -443 0
-59 50 -443 0
-59 -50 443 0
60 50 447 0
60 -50 -447 0
-60 50 -447 0
-60 -50 447 0
61 50 459 0
61 -50 -459 0
-61 50 -459 0
-61 -50 459 0
63 62 153 0
63 -62 -153 0
-63 62 -153 0
-63 -62 153 0
64 62 160 0
64 -62 -160 0
-64 62 -160 0
-64 -62 160 0
65 62 224 0
65 -62 -224 0
-65 62 -224 0
-65 -62 224 0
66 62 247 0
66 -62 -247 0
-66 62 -247 0
-66 -62 247 0
67 62 277 0
67 -62 -277 0
-67 62 -277 0
-67 -62 277 0
68 62 365 0
68 -62 -365 0
-68 62 -365 0
-68 -62 365 0
69 62 402 0
69 -62 -402 0
-69 62 -402 0
-69 -62 402 0
70 62 409 0
70 -62 -409 0
-70 62 -409 0
-70 -62 409 0
71 62 413 0
71 -62 -413 0
-71 62 -413 0
-71 -62 413 0
72 62 443 0
72 -62 -443 0
-72 62 -443 0
-72 -62 443 0
73 62 459 0
73 -62 -459 0
-73 62 -459 0
-73 -62 459 0
75 74 184 0
75 -74 -184 0
-75 74 -184 0
-75 -74 184 0
76 74 277 0
76 -74 -277 0
-76 74 -277 0
-76 -74 277 0
77 74 323 0
77 -74 -323 0
-77 74 -323 0
-77 -74 323 0
78 74 374 0
78 -74 -374 0
-78 74 -374 0
-78 -74 374 0
79 74 419 0
79 -74 -419 0
-79 74 -419 0
-79 -74 419 0
80 74 431 0
80 -74 -431 0
-80 74 -431 0
-80 -74 431 0
81 74 453 0
81 -74 -453 0
-81 74 -453 0
-81 -74 453 0
82 74 459 0
82 -74 -459 0
-82 74 -459 0
-82 -74 459 0
84 83 184 0
84 -83 -184 0
-84 83 -184 0
-84 -83 184 0
85 83 239 0
85 -83 -239 0
-85 83 -239 0
-85 -83 239 0
86 83 247 0
86 -83 -247 0
-86 83 -247 0
-86 -83 247 0
87 83 288 0
87 -83 -288 0
-87 83 -288 0
-87 -83 288 0
88 83 374 0
88 -83 -374 0
-88 83 -374 0
-88 -83 374 0
89 83 384 0
89 -83 -384 0
-89 83 -384 0
-89 -83 384 0
90 83 396 0
90 -83 -396 0
-90 83 -396 0
-90 -83 396 0
91 83 409 0
91 -83 -409 0
-91 83 -409 0
-91 -83 409 0
92 83 419 0
92 -83 -419 0
-92 83 -419 0
-92 -83 419 0
93 83 425 0
93 -83 -425 0
-93 83 -425 0
-93 -83 425 0
94 83 466 0
94 -83 -466 0
-94 83 -466 0
-94 -83 466 0
96 95 113 0
96 -95 -113 0
-96 95 -113 0
-96 -95 113 0
97 95 132 0
97 -95 -132 0
-97 95 -132 0
-97 -95 132 0
98 95 143 0
98 -95 -143 0
-98 95 -143 0
-98 -95 143 0
99 95 215 0
99 -95 -215 0
-99 95 -215 0
-99 -95 215 0
100 95 247 0
100 -95 -247 0
-100 95 -247 0
-100 -95 247 0
101 95 265 0
101 -95 -265 0
-101 95 -265 0
-101 -95 265 0
102 95 281 0
102 -95 -281 0
-102 95 -281 0
-102 -95 281 0
103 95 298 0
103 -95 -298 0
-103 95 -298 0
-103 -95 298 0
104 95 336 0
104 -95 -336 0
-104 95 -336 0
-104 -95 336 0
105 95 396 0
105 -95 -396 0
-105 95 -396 0
-105 -95 396 0
106 95 402 0
106 -95 -402 0
-106 95 -402 0
-106 -95 402 0
107 95 419 0
107 -95 -419 0
-107 95 -419 0
-107 -95 419 0
108 95 433 0
108 -95 -433 0
-108 95 -433 0
-108 -95 433 0
109 95 436 0
109 -95 -436 0
-109 95 -436 0
-109 -95 436 0
110 95 447 0
110 -95 -447 0
-110 95 -447 0
-110 -95 447 0
111 95 458 0
111 -95 -458 0
-111 95 -458 0
-111 -95 458 0
112 95 465 0
112 -95 -465 0
-112 95 -465 0
-112 -95 465 0
114 113 194 0
114 -113 -194 0
-114 113 -194 0
-114 -113 194 0
115 113 298 0
115 -113 -298 0
-115 113 -298 0
-115 -113 298 0
116 113 344 0
116 -113 -344 0
-116 113 -344 0
-116 -113 344 0
117 113 353 0
117 -113 -353 0
-117 113 -353 0
-117 -113 353 0
118 113 369 0
118 -113 -369 0
-118 113 -369 0
-118 -113 369 0
119 113 380 0
119 -113 -380 0
-119 113 -380 0
-119 -113 380 0
120 113 396 0
120 -113 -396 0
-120 113 -396 0
-120 -113 396 0
121 113 402 0
121 -113 -402 0
-121 113 -402 0
-121 -113 402 0
122 113 468 0
122 -113 -468 0
-122 113 -468 0
-122 -113 468 0
124 123 184 0
124 -123 -184 0
-124 123 -184 0
-124 -123 184 0
125 123 194 0
125 -123 -194 0
-125 123 -194 0
-125 -123 194 0
126 123 247 0
126 -123 -247 0
-126 123 -247 0
-126 -123 247 0
127 123 359 0
127 -123 -359 0
-127 123 -359 0
-127 -123 359 0
128 123 421 0
128 -123 -421 0
-128 123 -421 0
-128 -123 421 0
129 123 433 0
129 -123 -433 0
-129 123 -433 0
-129 -123 433 0
130 123 458 0
130 -123 -458 0
-130 123 -458 0
-130 -123 458 0
131 123 468 0
131 -123 -468 0
-131 123 -468 0
-131 -123 468 0
133 132 143 0
133 -132 -143 0
-133 132 -143 0
-133 -132 143 0
134 132 215 0
134 -132 -215 0
-134 132 -215 0
-134 -132 215 0
135 132 239 0
135 -132 -239 0
-135 132 -239 0
-135 -132 239 0
136 132 281 0
136 -132 -281 0
-136 132 -281 0
-136 -132 281 0
137 132 369 0
137 -132 -369 0
-137 132 -369 0
-137 -132 369 0
138 132 419 0
138 -132 -419 0
-138 132 -419 0
-138 -132 419 0
139 132 433 0
139 -132 -433 0
-139 132 -433 0
-139 -132 433 0
140 132 447 0
140 -132 -447 0
-140 132 -447 0
-140 -132 447 0
141 132 450 0
141 -132 -450 0
-141 132 -450 0
-141 -132 450 0
142 132 468 0
142 -132 -468 0
-142 132 -468 0
-142 -132 468 0
144 143 247 0
144 -143 -247 0
-144 143 -247 0
-144 -143 247 0
145 143 344 0
145 -143 -344 0
-145 143 -344 0
-145 -143 344 0
146 143 396 0
146 -143 -396 0
-146 143 -396 0
-146 -143 396 0
147 143 402 0
147 -143 -402 0
-147 143 -402 0
-147 -143 402 0
148 143 433 0
148 -143 -433 0
-148 143 -433 0
-148 -143 433 0
149 143 440 0
149 -143 -440 0
-149 143 -440 0
-149 -143 440 0
150 143 453 0
150 -143 -453 0
-150 143 -453 0
-150 -143 453 0
151 143 462 0
151 -143 -462 0
-151 143 -462 0
-151 -143 462 0
152 143 468 0
152 -143 -468 0
-152 143 -468 0
-152 -143 468 0
154 153 277 0
154 -153 -277 0
-154 153 -277 0
-154 -153 277 0
155 153 336 0
155 -153 -336 0
-155 153 -336 0
-155 -153 336 0
156 153 344 0
156 -153 -344 0
-156 153 -344 0
-156 -153 344 0
157 153 353 0
157 -153 -353 0
-157 153 -353 0
-157 -153 353 0
158 153 419 0
158 -153 -419 0
-158 153 -419 0
-158 -153 419 0
159 153 436 0
159 -153 -436 0
-159 153 -436 0
-159 -153 436 0
161 160 194 0
161 -160 -194 0
-161 160 -194 0
-161 -160 194 0
162 160 208 0
162 -160 -208 0
-162 160 -208 0
-162 -160 208 0
163 160 215 0
163 -160 -215 0
-163 160 -215 0
-163 -160 215 0
164 160 224 0
164 -160 -224 0
-164 160 -224 0
-164 -160 224 0
165 160 247 0
165 -160 -247 0
-165 160 -247 0
-165 -160 247 0
166 160 265 0
166 -160 -265 0
-166 160 -265 0
-166 -160 265 0
167 160 277 0
167 -160 -277 0
-167 160 -277 0
-167 -160 277 0
168 160 307 0
168 -160 -307 0
-168 160 -307 0
-168 -160 307 0
169 160 317 0
169 -160 -317 0
-169 160 -317 0
-169 -160 317 0
170 160 359 0
170 -160 -359 0
-170 160 -359 0
-170 -160 359 0
171 160 402 0
171 -160 -402 0
-171 160 -402 0
-171 -160 402 0
172 160 425 0
172 -160 -425 0
-172 160 -425 0
-172 -160 425 0
173 160 440 0
173 -160 -440 0
-173 160 -440 0
-173 -160 440 0
174 160 459 0
174 -160 -459 0
-174 160 -459 0
-174 -160 459 0
176 175 307 0
176 -175 -307 0
-176 175 -307 0
-176 -175 307 0
177 175 331 0
177 -175 -331 0
-177 175 -331 0
-177 -175 331 0
178 175 390 0
178 -175 -390 0
-178 175 -390 0
-178 -175 390 0
179 175 402 0
179 -175 -402 0
-179 175 -402 0
-179 -175 402 0
180 175 409 0
180 -175 -409 0
-180 175 -409 0
-180 -175 409 0
181 175 433 0
181 -175 -433 0
-181 175 -433 0
-181 -175 433 0
182 175 443 0
182 -175 -443 0
-182 175 -443 0
-182 -175 443 0
183 175 465 0
183 -175 -465 0
-183 175 -465 0
-183 -175 465 0
185 184 194 0
185 -184 -194 0
-185 184 -194 0
-185 -184 194 0
186 184 239 0
186 -184 -239 0
-186 184 -239 0
-186 -184 239 0
187 184 277 0
187 -184 -277 0
-187 184 -277 0
-187 -184 277 0
188 184 344 0
188 -184 -344 0
-188 184 -344 0
-188 -184 344 0
189 184 369 0
189 -184 -369 0
-189 184 -369 0
-189 -184 369 0
190 184 402 0
190 -184 -402 0
-190 184 -402 0
-190 -184 402 0
191 184 421 0
191 -184 -421 0
-191 184 -421 0
-191 -184 421 0
192 184 450 0
192 -184 -450 0
-192 184 -450 0
-192 -184 450 0
193 184 459 0
193 -184 -459 0
-193 184 -459 0
-193 -184 459 0
195 194 234 0
195 -194 -234 0
-195 194 -234 0
-195 -194 234 0
196 194 265 0
196 -194 -265 0
-196 194 -265 0
-196 -194 265 0
197 194 353 0
197 -194 -353 0
-197 194 -353 0
-197 -194 353 0
198 194 359 0
198 -194 -359 0
-198 194 -359 0
-198 -194 359 0
199 194 374 0
199 -194 -374 0
-199 194 -374 0
-199 -194 374 0
200 194 402 0
200 -194 -402 0
-200 194 -402 0
-200 -194 402 0
201 194 413 0
201 -194 -413 0
-201 194 -413 0
-201 -194 413 0
202 194 425 0
202 -194 -425 0
-202 194 -425 0
-202 -194 425 0
203 194 431 0
203 -194 -431 0
-203 194 -431 0
-203 -194 431 0
204 194 433 0
204 -194 -433 0
-204 194 -433 0
-204 -194 433 0
205 194 434 0
205 -194 -434 0
-205 194 -434 0
-205 -194 434 0
206 194 443 0
206 -194 -443 0
-206 194 -443 0
-206 -194 443 0
207 194 462 0
207 -194 -462 0
-207 194 -462 0
-207 -194 462 0
209 208 224 0
209 -208 -224 0
-209 208 -224 0
-209 -208 224 0
210 208 336 0
210 -208 -336 0
-210 208 -336 0
-210 -208 336 0
211 208 344 0
211 -208 -344 0
-211 208 -344 0
-211 -208 344 0
212 208 390 0
212 -208 -390 0
-212 208 -390 0
-212 -208 390 0
213 208 409 0
213 -208 -409 0
-213 208 -409 0
-213 -208 409 0
214 208 421 0
214 -208 -421 0
-214 208 -421 0
-214 -208 421 0
216 215 292 0
216 -215 -292 0
-216 215 -292 0
-216 -215 292 0
217 215 298 0
217 -215 -298 0
-217 215 -298 0
-217 -215 298 0
218 215 336 0
218 -215 -336 0
-218 215 -336 0
-218 -215 336 0
219 215 396 0
219 -215 -396 0
-219 215 -396 0
-219 -215 396 0
220 215 402 0
220 -215 -402 0
-220 215 -402 0
-220 -215 402 0
221 215 462 0
221 -215 -462 0
-221 215 -462 0
-221 -215 462 0
222 215 464 0
222 -215 -464 0
-222 215 -464 0
-222 -215 464 0
223 215 468 0
223 -215 -468 0
-223 215 -468 0
-223 -215 468 0
225 224 288 0
225 -224 -288 0
-225 224 -288 0
-225 -224 288 0
226 224 380 0
226 -224 -380 0
-226 224 -380 0
-226 -224 380 0
227 224 390 0
227 -224 -390 0
-227 224 -390 0
-227 -224 390 0
228 224 396 0
228 -224 -396 0
-228 224 -396 0
-228 -224 396 0
229 224 402 0
229 -224 -402 0
-229 224 -402 0
-229 -224 402 0
230 224 419 0
230 -224 -419 0
-230 224 -419 0
-230 -224 419 0
231 224 431 0
231 -224 -431 0
-231 224 -431 0
-231 -224 431 0
232 224 434 0
232 -224 -434 0
-232 224 -434 0
-232 -224 434 0
233 224 443 0
233 -224 -443 0
-233 224 -443 0
-233 -224 443 0
235 234 265 0
235 -234 -265 0
-235 234 -265 0
-235 -234 265 0
236 234 331 0
236 -234 -331 0
-236 234 -331 0
-236 -234 331 0
237 234 344 0
237 -234 -344 0
-237 234 -344 0
-237 -234 344 0
238 234 436 0
238 -234 -436 0
-238 234 -436 0
-238 -234 436 0
240 239 298 0
240 -239 -298 0
-240 239 -298 0
-240 -239 298 0
241 239 307 0
241 -239 -307 0
-241 239 -307 0
-241 -239 307 0
242 239 317 0
242 -239 -317 0
-242 239 -317 0
-242 -239 317 0
243 239 323 0
243 -239 -323 0
-243 239 -323 0
-243 -239 323 0
244 239 331 0
244 -239 -331 0
-244 239 -331 0
-244 -239 331 0
245 239 434 0
245 -239 -434 0
-245 239 -434 0
-245 -239 434 0
246 239 450 0
246 -239 -450 0
-246 239 -450 0
-246 -239 450 0
248 247 331 0
248 -247 -331 0
-248 247 -331 0
-248 -247 331 0
249 247 390 0
249 -247 -390 0
-249 247 -390 0
-249 -247 390 0
250 247 409 0
250 -247 -409 0
-250 247 -409 0
-250 -247 409 0
252 251 317 0
252 -251 -317 0
-252 251 -317 0
-252 -251 317 0
253 251 359 0
253 -251 -359 0
-253 251 -359 0
-253 -251 359 0
254 251 409 0
254 -251 -409 0
-254 251 -409 0
-254 -251 409 0
255 251 433 0
255 -251 -433 0
-255 251 -433 0
-255 -251 433 0
256 251 436 0
256 -251 -436 0
-256 251 -436 0
-256 -251 436 0
257 251 440 0
257 -251 -440 0
-257 251 -440 0
-257 -251 440 0
259 258 298 0
259 -258 -298 0
-259 258 -298 0
-259 -258 298 0
260 258 323 0
260 -258 -323 0
-260 258 -323 0
-260 -258 323 0
261 258 402 0
261 -258 -402 0
-261 258 -402 0
-261 -258 402 0
262 258 409 0
262 -258 -409 0
-262 258 -409 0
-262 -258 409 0
263 258 434 0
263 -258 -434 0
-263 258 -434 0
-263 -258 434 0
264 258 456 0
264 -258 -456 0
-264 258 -456 0
-264 -258 456 0
266 265 277 0
266 -265 -277 0
-266 265 -277 0
-266 -265 277 0
267 265 307 0
267 -265 -307 0
-267 265 -307 0
-267 -265 307 0
268 265 336 0
268 -265 -336 0
-268 265 -336 0
-268 -265 336 0
269 265 353 0
269 -265 -353 0
-269 265 -353 0
-269 -265 353 0
270 265 365 0
270 -265 -365 0
-270 265 -365 0
-270 -265 365 0
271 265 380 0
271 -265 -380 0
-271 265 -380 0
-271 -265 380 0
272 265 390 0
272 -265 -390 0
-272 265 -390 0
-272 -265 390 0
273 265 433 0
273 -265 -433 0
-273 265 -433 0
-273 -265 433 0
274 265 434 0
274 -265 -434 0
-274 265 -434 0
-274 -265 434 0
275 265 466 0
275 -265 -466 0
-275 265 -466 0
-275 -265 466 0
276 265 468 0
276 -265 -468 0
-276 265 -468 0
-276 -265 468 0
278 277 331 0
278 -277 -331 0
-278 277 -331 0
-278 -277 331 0
279 277 425 0
279 -277 -425 0
-279 277 -425 0
-279 -277 425 0
280 277 443 0
280 -277 -443 0
-280 277 -443 0
-280 -277 443 0
282 281 298 0
282 -281 -298 0
-282 281 -298 0
-282 -281 298 0
283 281 331 0
283 -281 -331 0
-283 281 -331 0
-283 -281 331 0
284 281 384 0
284 -281 -384 0
-284 281 -384 0
-284 -281 384 0
285 281 436 0
285 -281 -436 0
-285 281 -436 0
-285 -281 436 0
286 281 453 0
286 -281 -453 0
-286 281 -453 0
-286 -281 453 0
287 281 466 0
287 -281 -466 0
-287 281 -466 0
-287 -281 466 0
289 288 365 0
289 -288 -365 0
-289 288 -365 0
-289 -288 365 0
290 288 369 0
290 -288 -369 0
-290 288 -369 0
-290 -288 369 0
291 288 459 0
291 -288 -459 0
-291 288 -459 0
-291 -288 459 0
293 292 323 0
293 -292 -323 0
-293 292 -323 0
-293 -292 323 0
294 292 331 0
294 -292 -331 0
-294 292 -331 0
-294 -292 331 0
295 292 374 0
295 -292 -374 0
-295 292 -374 0
-295 -292 374 0
296 292 409 0
296 -292 -409 0
-296 292 -409 0
-296 -292 409 0
297 292 453 0
297 -292 -453 0
-297 292 -453 0
-297 -292 453 0
299 298 307 0
299 -298 -307 0
-299 298 -307 0
-299 -298 307 0
300 298 336 0
300 -298 -336 0
-300 298 -336 0
-300 -298 336 0
301 298 344 0
301 -298 -344 0
-301 298 -344 0
-301 -298 344 0
302 298 390 0
302 -298 -390 0
-302 298 -390 0
-302 -298 390 0
303 298 396 0
303 -298 -396 0
-303 298 -396 0
-303 -298 396 0
304 298 402 0
304 -298 -402 0
-304 298 -402 0
-304 -298 402 0
305 298 419 0
305 -298 -419 0
-305 298 -419 0
-305 -298 419 0
306 298 464 0
306 -298 -464 0
-306 298 -464 0
-306 -298 464 0
308 307 323 0
308 -307 -323 0
-308 307 -323 0
-308 -307 323 0
309 307 331 0
309 -307 -331 0
-309 307 -331 0
-309 -307 331 0
310 307 353 0
310 -307 -353 0
-310 307 -353 0
-310 -307 353 0
311 307 380 0
311 -307 -380 0
-311 307 -380 0
-311 -307 380 0
312 307 440 0
312 -307 -440 0
-312 307 -440 0
-312 -307 440 0
313 307 443 0
313 -307 -443 0
-313 307 -443 0
-313 -307 443 0
314 307 447 0
314 -307 -447 0
-314 307 -447 0
-314 -307 447 0
315 307 458 0
315 -307 -458 0
-315 307 -458 0
-315 -307 458 0
316 307 468 0
316 -307 -468 0
-316 307 -468 0
-316 -307 468 0
318 317 443 0
318 -317 -443 0
-318 317 -443 0
-318 -317 443 0
319 317 453 0
319 -317 -453 0
-319 317 -453 0
-319 -317 453 0
320 317 456 0
320 -317 -456 0
-320 317 -456 0
-320 -317 456 0
321 317 458 0
321 -317 -458 0
-321 317 -458 0
-321 -317 458 0
322 317 465 0
322 -317 -465 0
-322 317 -465 0
-322 -317 465 0
324 323 353 0
324 -323 -353 0
-324 323 -353 0
-324 -323 353 0
325 323 359 0
325 -323 -359 0
-325 323 -359 0
-325 -323 359 0
326 323 380 0
326 -323 -380 0
-326 323 -380 0
-326 -323 380 0
327 323 425 0
327 -323 -425 0
-327 323 -425 0
-327 -323 425 0
328 323 431 0
328 -323 -431 0
-328 323 -431 0
-328 -323 431 0
329 323 443 0
329 -323 -443 0
-329 323 -443 0
-329 -323 443 0
330 323 458 0
330 -323 -458 0
-330 323 -458 0
-330 -323 458 0
332 331 434 0
332 -331 -434 0
-332 331 -434 0
-332 -331 434 0
333 331 456 0
333 -331 -456 0
-333 331 -456 0
-333 -331 456 0
334 331 459 0
334 -331 -459 0
-334 331 -459 0
-334 -331 459 0
335 331 462 0
335 -331 -462 0
-335 331 -462 0
-335 -331 462 0
337 336 365 0
337 -336 -365 0
-337 336 -365 0
-337 -336 365 0
338 336 380 0
338 -336 -380 0
-338 336 -380 0
-338 -336 380 0
339 336 431 0
339 -336 -431 0
-339 336 -431 0
-339 -336 431 0
340 336 436 0
340 -336 -436 0
-340 336 -436 0
-340 -336 436 0
341 336 458 0
341 -336 -458 0
-341 336 -458 0
-341 -336 458 0
342 336 464 0
342 -336 -464 0
-342 336 -464 0
-342 -336 464 0
343 336 466 0
343 -336 -466 0
-343 336 -466 0
-343 -336 466 0
345 344 380 0
345 -344 -380 0
-345 344 -380 0
-345 -344 380 0
346 344 384 0
346 -344 -384 0
-346 344 -384 0
-346 -344 384 0
347 344 433 0
347 -344 -433 0
-347 344 -433 0
-347 -344 433 0
348 344 434 0
348 -344 -434 0
-348 344 -434 0
-348 -344 434 0
349 344 440 0
349 -344 -440 0
-349 344 -440 0
-349 -344 440 0
350 344 459 0
350 -344 -459 0
-350 344 -459 0
-350 -344 459 0
351 344 464 0
351 -344 -464 0
-351 344 -464 0
-351 -344 464 0
352 344 468 0
352 -344 -468 0
-352 344 -468 0
-352 -344 468 0
354 353 419 0
354 -353 -419 0
-354 353 -419 0
-354 -353 419 0
355 353 425 0
355 -353 -425 0
-355 353 -425 0
-355 -353 425 0
356 353 443 0
356 -353 -443 0
-356 353 -443 0
-356 -353 443 0
357 353 450 0
357 -353 -450 0
-357 353 -450 0
-357 -353 450 0
358 353 458 0
358 -353 -458 0
-358 353 -458 0
-358 -353 458 0
360 359 396 0
360 -359 -396 0
-360 359 -396 0
-360 -359 396 0
361 359 425 0
361 -359 -425 0
-361 359 -425 0
-361 -359 425 0
362 359 443 0
362 -359 -443 0
-362 359 -443 0
-362 -359 443 0
363 359 450 0
363 -359 -450 0
-363 359 -450 0
-363 -359 450 0
364 359 466 0
364 -359 -466 0
-364 359 -466 0
-364 -359 466 0
366 365 419 0
366 -365 -419 0
-366 365 -419 0
-366 -365 419 0
367 365 421 0
367 -365 -421 0
-367 365 -421 0
-367 -365 421 0
368 365 425 0
368 -365 -425 0
-368 365 -425 0
-368 -365 425 0
370 369 384 0
370 -369 -384 0
-370 369 -384 0
-370 -369 384 0
371 369 440 0
371 -369 -440 0
-371 369 -440 0
-371 -369 440 0
372 369 447 0
372 -369 -447 0
-372 369 -447 0
-372 -369 447 0
373 369 459 0
373 -369 -459 0
-373 369 -459 0
-373 -369 459 0
375 374 396 0
375 -374 -396 0
-375 374 -396 0
-375 -374 396 0
376 374 409 0
376 -374 -409 0
-376 374 -409 0
-376 -374 409 0
377 374 419 0
377 -374 -419 0
-377 374 -419 0
-377 -374 419 0
378 374 433 0
378 -374 -433 0
-378 374 -433 0
-378 -374 433 0
379 374 465 0
379 -374 -465 0
-379 374 -465 0
-379 -374 465 0
381 380 384 0
381 -380 -384 0
-381 380 -384 0
-381 -380 384 0
382 380 425 0
382 -380 -425 0
-382 380 -425 0
-382 -380 425 0
383 380 464 0
383 -380 -464 0
-383 380 -464 0
-383 -380 464 0
385 384 390 0
385 -384 -390 0
-385 384 -390 0
-385 -384 390 0
386 384 402 0
386 -384 -402 0
-386 384 -402 0
-386 -384 402 0
387 384 450 0
387 -384 -450 0
-387 384 -450 0
-387 -384 450 0
388 384 453 0
388 -384 -453 0
-388 384 -453 0
-388 -384 453 0
389 384 464 0
389 -384 -464 0
-389 384 -464 0
-389 -384 464 0
391 390 402 0
391 -390 -402 0
-391 390 -402 0
-391 -390 402 0
392 390 409 0
392 -390 -409 0
-392 390 -409 0
-392 -390 409 0
393 390 433 0
393 -390 -433 0
-393 390 -433 0
-393 -390 433 0
394 390 443 0
394 -390 -443 0
-394 390 -443 0
-394 -390 443 0
395 390 466 0
395 -390 -466 0
-395 390 -466 0
-395 -390 466 0
397 396 409 0
397 -396 -409 0
-397 396 -409 0
-397 -396 409 0
398 396 440 0
398 -396 -440 0
-398 396 -440 0
-398 -396 440 0
399 396 443 0
399 -396 -443 0
-399 396 -443 0
-399 -396 443 0
400 396 447 0
400 -396 -447 0
-400 396 -447 0
-400 -396 447 0
401 396 462 0
401 -396 -462 0
-401 396 -462 0
-401 -396 462 0
403 402 409 0
403 -402 -409 0
-403 402 -409 0
-403 -402 409 0
404 402 436 0
404 -402 -436 0
-404 402 -436 0
-404 -402 436 0
405 402 440 0
405 -402 -440 0
-405 402 -440 0
-405 -402 440 0
406 402 443 0
406 -402 -443 0
-406 402 -443 0
-406 -402 443 0
407 402 458 0
407 -402 -458 0
-407 402 -458 0
-407 -402 458 0
408 402 466 0
408 -402 -466 0
-408 402 -466 0
-408 -402 466 0
410 409 450 0
410 -409 -450 0
-410 409 -450 0
-410 -409 450 0
411 409 459 0
411 -409 -459 0
-411 409 -459 0
-411 -409 459 0
412 409 466 0
412 -409 -466 0
-412 409 -466 0
-412 -409 466 0
414 413 434 0
414 -413 -434 0
-414 413 -434 0
-414 -413 434 0
415 413 453 0
415 -413 -453 0
-415 413 -453 0
-415 -413 453 0
416 413 459 0
416 -413 -459 0
-416 413 -459 0
-416 -413 459 0
417 413 465 0
417 -413 -465 0
-417 413 -465 0
-417 -413 465 0
418 413 468 0
418 -413 -468 0
-418 413 -468 0
-418 -413 468 0
420 419 459 0
420 -419 -459 0
-420 419 -459 0
-420 -419 459 0
422 421 425 0
422 -421 -425 0
-422 421 -425 0
-422 -421 425 0
423 421 458 0
423 -421 -458 0
-423 421 -458 0
-423 -421 458 0
424 421 464 0
424 -421 -464 0
-424 421 -464 0
-424 -421 464 0
426 425 431 0
426 -425 -431 0
-426 425 -431 0
-426 -425 431 0
427 425 443 0
427 -425 -443 0
-427 425 -443 0
-427 -425 443 0
428 425 453 0
428 -425 -453 0
-428 425 -453 0
-428 -425 453 0
429 425 458 0
429 -425 -458 0
-429 425 -458 0
-429 -425 458 0
430 425 464 0
430 -425 -464 0
-430 425 -464 0
-430 -425 464 0
432 431 450 0
432 -431 -450 0
-432 431 -450 0
-432 -431 450 0
435 434 459 0
435 -434 -459 0
-435 434 -459 0
-435 -434 459 0
437 436 443 0
437 -436 -443 0
-437 436 -443 0
-437 -436 443 0
438 436 450 0
438 -436 -450 0
-438 436 -450 0
-438 -436 450 0
439 436 465 0
439 -436 -465 0
-439 436 -465 0
-439 -436 465 0
441 440 450 0
441 -440 -450 0
-441 440 -450 0
-441 -440 450 0
442 440 466 0
442 -440 -466 0
-442 440 -466 0
-442 -440 466 0
444 443 453 0
444 -443 -453 0
-444 443 -453 0
-444 -443 453 0
445 443 459 0
445 -443 -459 0
-445 443 -459 0
-445 -443 459 0
446 443 465 0
446 -443 -465 0
-446 443 -465 0
-446 -443 465 0
448 447 458 0
448 -447 -458 0
-448 447 -458 0
-448 -447 458 0
449 447 468 0
449 -447 -468 0
-449 447 -468 0
-449 -447 468 0
451 450 456 0
451 -450 -456 0
-451 450 -456 0
-451 -450 456 0
452 450 462 0
452 -450 -462 0
-452 450 -462 0
-452 -450 462 0
454 453 456 0
454 -453 -456 0
-454 453 -456 0
-454 -453 456 0
455 453 462 0
455 -453 -462 0
-455 453 -462 0
-455 -453 462 0
457 456 459 0
457 -456 -459 0
-457 456 -459 0
-457 -456 459 0
460 459 462 0
460 -459 -462 0
-460 459 -462 0
-460 -459 462 0
461 459 468 0
461 -459 -468 0
-461 459 -468 0
-461 -459 468 0
463 462 466 0
463 -462 -466 0
-463 462 -466 0
-463 -462 466 0
467 466 468 0
467 -466 -468 0
-467 466 -468 0
-467 -466 468 0
